solution/p_4_4.txt_600.col.lp
\ENCODING=ISO-8859-1
\Problem name: ilog.cplex

Maximize
 obj: 15 x_ijk_0_0_0 + 15 x_ijk_0_0_1 + 15 x_ijk_0_0_2 + 15 x_ijk_0_0_3
      + 13 x_ijk_0_1_0 + 13 x_ijk_0_1_1 + 13 x_ijk_0_1_2 + 13 x_ijk_0_1_3
      + 10 x_ijk_0_2_0 + 10 x_ijk_0_2_1 + 10 x_ijk_0_2_2 + 10 x_ijk_0_2_3
      + x_ijk_1_0_0 + x_ijk_1_0_1 + x_ijk_1_0_2 + x_ijk_1_0_3 + 19 x_ijk_1_1_0
      + 19 x_ijk_1_1_1 + 19 x_ijk_1_1_2 + 19 x_ijk_1_1_3 + 10 x_ijk_2_0_0
      + 10 x_ijk_2_0_1 + 10 x_ijk_2_0_2 + 10 x_ijk_2_0_3 + 7 x_ijk_2_1_0
      + 7 x_ijk_2_1_1 + 7 x_ijk_2_1_2 + 7 x_ijk_2_1_3 + 17 x_ijk_2_2_0
      + 17 x_ijk_2_2_1 + 17 x_ijk_2_2_2 + 17 x_ijk_2_2_3 + 7 x_ijk_3_0_0
      + 7 x_ijk_3_0_1 + 7 x_ijk_3_0_2 + 7 x_ijk_3_0_3 + 11 x_ijk_3_1_0
      + 11 x_ijk_3_1_1 + 11 x_ijk_3_1_2 + 11 x_ijk_3_1_3 + 10 x_ijk_3_2_0
      + 10 x_ijk_3_2_1 + 10 x_ijk_3_2_2 + 10 x_ijk_3_2_3 + 15 x_ijk_3_3_0
      + 15 x_ijk_3_3_1 + 15 x_ijk_3_3_2 + 15 x_ijk_3_3_3 + 11 x_ijk_3_4_0
      + 11 x_ijk_3_4_1 + 11 x_ijk_3_4_2 + 11 x_ijk_3_4_3
Subject To
 c1:  10 x_ijk_0_0_0 + 22 x_ijk_0_1_0 + 38 x_ijk_0_2_0 + 23 x_ijk_1_0_0
      + 14 x_ijk_1_1_0 + 26 x_ijk_2_0_0 + 39 x_ijk_2_1_0 + 10 x_ijk_2_2_0
      + 15 x_ijk_3_0_0 + 19 x_ijk_3_1_0 + 30 x_ijk_3_2_0 + 2 x_ijk_3_3_0
      + 11 x_ijk_3_4_0 - Rgc1  = -2147483647
 c2:  28 x_ijk_0_0_1 + 38 x_ijk_0_1_1 + 36 x_ijk_0_2_1 + 20 x_ijk_1_0_1
      + 10 x_ijk_1_1_1 + 37 x_ijk_2_0_1 + 20 x_ijk_2_1_1 + 32 x_ijk_2_2_1
      + 13 x_ijk_3_0_1 + 35 x_ijk_3_1_1 + 19 x_ijk_3_2_1 + 32 x_ijk_3_3_1
      + 30 x_ijk_3_4_1 - Rgc2  = -2147483647
 c3:  31 x_ijk_0_0_2 + 26 x_ijk_0_1_2 + 8 x_ijk_0_2_2 + 3 x_ijk_1_0_2
      + 3 x_ijk_1_1_2 + 32 x_ijk_2_0_2 + 40 x_ijk_2_1_2 + 32 x_ijk_2_2_2
      + 38 x_ijk_3_0_2 + 20 x_ijk_3_1_2 + 24 x_ijk_3_2_2 + 19 x_ijk_3_3_2
      + 11 x_ijk_3_4_2 - Rgc3  = -2147483647
 c4:  20 x_ijk_0_0_3 + 31 x_ijk_0_1_3 + 27 x_ijk_0_2_3 + 21 x_ijk_1_0_3
      + 12 x_ijk_1_1_3 + 23 x_ijk_2_0_3 + 14 x_ijk_2_1_3 + 2 x_ijk_2_2_3
      + 27 x_ijk_3_0_3 + 9 x_ijk_3_1_3 + 13 x_ijk_3_2_3 + 26 x_ijk_3_3_3
      + 36 x_ijk_3_4_3 - Rgc4  = -2147483647
 c5:  x_ijk_0_0_0 + x_ijk_0_1_0 + x_ijk_0_2_0 - Rgc5  = -2147483647
 c6:  x_ijk_0_0_1 + x_ijk_0_1_1 + x_ijk_0_2_1 - Rgc6  = -2147483647
 c7:  x_ijk_0_0_2 + x_ijk_0_1_2 + x_ijk_0_2_2 - Rgc7  = -2147483647
 c8:  x_ijk_0_0_3 + x_ijk_0_1_3 + x_ijk_0_2_3 - Rgc8  = -2147483647
 c9:  x_ijk_1_0_0 + x_ijk_1_1_0 - Rgc9  = -2147483647
 c10: x_ijk_1_0_1 + x_ijk_1_1_1 - Rgc10  = -2147483647
 c11: x_ijk_1_0_2 + x_ijk_1_1_2 - Rgc11  = -2147483647
 c12: x_ijk_1_0_3 + x_ijk_1_1_3 - Rgc12  = -2147483647
 c13: x_ijk_2_0_0 + x_ijk_2_1_0 + x_ijk_2_2_0 - Rgc13  = -2147483647
 c14: x_ijk_2_0_1 + x_ijk_2_1_1 + x_ijk_2_2_1 - Rgc14  = -2147483647
 c15: x_ijk_2_0_2 + x_ijk_2_1_2 + x_ijk_2_2_2 - Rgc15  = -2147483647
 c16: x_ijk_2_0_3 + x_ijk_2_1_3 + x_ijk_2_2_3 - Rgc16  = -2147483647
 c17: x_ijk_3_0_0 + x_ijk_3_1_0 + x_ijk_3_2_0 + x_ijk_3_3_0 + x_ijk_3_4_0
      - Rgc17  = -2147483647
 c18: x_ijk_3_0_1 + x_ijk_3_1_1 + x_ijk_3_2_1 + x_ijk_3_3_1 + x_ijk_3_4_1
      - Rgc18  = -2147483647
 c19: x_ijk_3_0_2 + x_ijk_3_1_2 + x_ijk_3_2_2 + x_ijk_3_3_2 + x_ijk_3_4_2
      - Rgc19  = -2147483647
 c20: x_ijk_3_0_3 + x_ijk_3_1_3 + x_ijk_3_2_3 + x_ijk_3_3_3 + x_ijk_3_4_3
      - Rgc20  = -2147483647
Bounds
 0 <= x_ijk_0_0_0 <= 1
 0 <= x_ijk_0_0_1 <= 1
 0 <= x_ijk_0_0_2 <= 1
 0 <= x_ijk_0_0_3 <= 1
 0 <= x_ijk_0_1_0 <= 1
 0 <= x_ijk_0_1_1 <= 1
 0 <= x_ijk_0_1_2 <= 1
 0 <= x_ijk_0_1_3 <= 1
 0 <= x_ijk_0_2_0 <= 1
 0 <= x_ijk_0_2_1 <= 1
 0 <= x_ijk_0_2_2 <= 1
 0 <= x_ijk_0_2_3 <= 1
 0 <= x_ijk_1_0_0 <= 1
 0 <= x_ijk_1_0_1 <= 1
 0 <= x_ijk_1_0_2 <= 1
 0 <= x_ijk_1_0_3 <= 1
 0 <= x_ijk_1_1_0 <= 1
 0 <= x_ijk_1_1_1 <= 1
 0 <= x_ijk_1_1_2 <= 1
 0 <= x_ijk_1_1_3 <= 1
 0 <= x_ijk_2_0_0 <= 1
 0 <= x_ijk_2_0_1 <= 1
 0 <= x_ijk_2_0_2 <= 1
 0 <= x_ijk_2_0_3 <= 1
 0 <= x_ijk_2_1_0 <= 1
 0 <= x_ijk_2_1_1 <= 1
 0 <= x_ijk_2_1_2 <= 1
 0 <= x_ijk_2_1_3 <= 1
 0 <= x_ijk_2_2_0 <= 1
 0 <= x_ijk_2_2_1 <= 1
 0 <= x_ijk_2_2_2 <= 1
 0 <= x_ijk_2_2_3 <= 1
 0 <= x_ijk_3_0_0 <= 1
 0 <= x_ijk_3_0_1 <= 1
 0 <= x_ijk_3_0_2 <= 1
 0 <= x_ijk_3_0_3 <= 1
 0 <= x_ijk_3_1_0 <= 1
 0 <= x_ijk_3_1_1 <= 1
 0 <= x_ijk_3_1_2 <= 1
 0 <= x_ijk_3_1_3 <= 1
 0 <= x_ijk_3_2_0 <= 1
 0 <= x_ijk_3_2_1 <= 1
 0 <= x_ijk_3_2_2 <= 1
 0 <= x_ijk_3_2_3 <= 1
 0 <= x_ijk_3_3_0 <= 1
 0 <= x_ijk_3_3_1 <= 1
 0 <= x_ijk_3_3_2 <= 1
 0 <= x_ijk_3_3_3 <= 1
 0 <= x_ijk_3_4_0 <= 1
 0 <= x_ijk_3_4_1 <= 1
 0 <= x_ijk_3_4_2 <= 1
 0 <= x_ijk_3_4_3 <= 1
 0 <= Rgc1 <= 2147483693
 0 <= Rgc2 <= 2147483718
 0 <= Rgc3 <= 2147483728
 0 <= Rgc4 <= 2147483720
 0 <= Rgc5 <= 2147483648
 0 <= Rgc6 <= 2147483648
 0 <= Rgc7 <= 2147483648
 0 <= Rgc8 <= 2147483648
 0 <= Rgc9 <= 2147483648
 0 <= Rgc10 <= 2147483648
 0 <= Rgc11 <= 2147483648
 0 <= Rgc12 <= 2147483648
 0 <= Rgc13 <= 2147483648
 0 <= Rgc14 <= 2147483648
 0 <= Rgc15 <= 2147483648
 0 <= Rgc16 <= 2147483648
 0 <= Rgc17 <= 2147483648
 0 <= Rgc18 <= 2147483648
 0 <= Rgc19 <= 2147483648
 0 <= Rgc20 <= 2147483648
Generals
 x_ijk_0_0_0  x_ijk_0_0_1  x_ijk_0_0_2  x_ijk_0_0_3  x_ijk_0_1_0  x_ijk_0_1_1 
 x_ijk_0_1_2  x_ijk_0_1_3  x_ijk_0_2_0  x_ijk_0_2_1  x_ijk_0_2_2  x_ijk_0_2_3 
 x_ijk_1_0_0  x_ijk_1_0_1  x_ijk_1_0_2  x_ijk_1_0_3  x_ijk_1_1_0  x_ijk_1_1_1 
 x_ijk_1_1_2  x_ijk_1_1_3  x_ijk_2_0_0  x_ijk_2_0_1  x_ijk_2_0_2  x_ijk_2_0_3 
 x_ijk_2_1_0  x_ijk_2_1_1  x_ijk_2_1_2  x_ijk_2_1_3  x_ijk_2_2_0  x_ijk_2_2_1 
 x_ijk_2_2_2  x_ijk_2_2_3  x_ijk_3_0_0  x_ijk_3_0_1  x_ijk_3_0_2  x_ijk_3_0_3 
 x_ijk_3_1_0  x_ijk_3_1_1  x_ijk_3_1_2  x_ijk_3_1_3  x_ijk_3_2_0  x_ijk_3_2_1 
 x_ijk_3_2_2  x_ijk_3_2_3  x_ijk_3_3_0  x_ijk_3_3_1  x_ijk_3_3_2  x_ijk_3_3_3 
 x_ijk_3_4_0  x_ijk_3_4_1  x_ijk_3_4_2  x_ijk_3_4_3 
End
